p cnf 103 360
-3 4 -5 0
3 -4 -5 0
-3 -4 5 0
3 4 5 0
-6 2 0
-6 -5 0
-2 5 6 0
7 1 0
7 -6 0
-1 6 -7 0
-8 9 -10 0
8 -9 -10 0
-8 -9 10 0
8 9 10 0
-12 -10 0
-12 11 0
10 -11 12 0
-14 -13 0
-14 9 0
13 -9 14 0
15 -12 0
15 -14 0
12 14 -15 0
16 3 -17 0
-16 -3 -17 0
16 -3 17 0
-16 3 17 0
18 -13 0
18 -17 0
13 17 -18 0
-19 -15 0
-19 18 0
15 -18 19 0
21 -2 0
21 2 0
-22 20 0
-22 -21 0
-20 21 22 0
22 3 -23 0
-22 -3 -23 0
22 -3 23 0
-22 3 23 0
19 23 -24 0
-19 -23 -24 0
19 -23 24 0
-19 23 24 0
7 -24 -25 0
-7 24 -25 0
7 24 25 0
-7 -24 25 0
26 -16 0
26 -13 0
16 13 -26 0
-27 -26 0
-27 -11 0
26 11 27 0
-5 -27 -28 0
5 27 -28 0
-5 27 28 0
5 -27 28 0
29 -13 0
29 -4 0
13 4 -29 0
-30 -28 0
-30 29 0
28 -29 30 0
-31 8 0
-31 13 0
-8 -13 31 0
33 -31 0
33 -32 0
31 32 -33 0
34 -33 0
34 29 0
33 -29 -34 0
35 30 0
35 34 0
-30 -34 -35 0
35 -28 -36 0
-35 28 -36 0
35 28 36 0
-35 -28 36 0
37 3 0
37 -10 0
-3 10 -37 0
38 -15 0
38 37 0
15 -37 -38 0
-38 4 -39 0
38 -4 -39 0
-38 -4 39 0
38 4 39 0
10 -14 -40 0
-10 14 -40 0
10 14 40 0
-10 -14 40 0
-41 -8 0
-41 -40 0
8 40 41 0
-42 41 0
-42 -34 0
-41 34 42 0
43 39 0
43 -42 0
-39 42 -43 0
44 -36 0
44 43 0
36 -43 -44 0
45 9 0
45 10 0
-9 -10 -45 0
-10 45 -46 0
10 -45 -46 0
-10 -45 46 0
10 45 46 0
-47 -1 0
-47 -46 0
1 46 47 0
-4 -1 -48 0
4 1 -48 0
-4 1 48 0
4 -1 48 0
-40 -48 -49 0
40 48 -49 0
-40 48 49 0
40 -48 49 0
50 46 0
50 40 0
-46 -40 -50 0
-51 -49 0
-51 -50 0
49 50 51 0
47 51 -52 0
-47 -51 -52 0
47 -51 52 0
-47 51 52 0
53 -44 0
53 52 0
44 -52 -53 0
5 4 -54 0
-5 -4 -54 0
5 -4 54 0
-5 4 54 0
56 -29 0
56 -4 0
29 4 -56 0
-57 -28 0
-57 56 0
28 -56 57 0
-58 55 0
-58 57 0
-55 -57 58 0
59 13 -60 0
-59 -13 -60 0
59 -13 60 0
-59 13 60 0
-61 -58 0
-61 -60 0
58 60 61 0
-62 -54 0
-62 -61 0
54 61 62 0
-53 -62 -63 0
53 62 -63 0
-53 62 63 0
53 -62 63 0
46 14 -64 0
-46 -14 -64 0
46 -14 64 0
-46 14 64 0
-56 -64 -65 0
56 64 -65 0
-56 64 65 0
56 -64 65 0
32 26 -66 0
-32 -26 -66 0
32 -26 66 0
-32 26 66 0
-66 32 -67 0
66 -32 -67 0
-66 -32 67 0
66 32 67 0
-68 65 0
-68 -67 0
-65 67 68 0
-69 63 0
-69 -68 0
-63 68 69 0
70 13 0
70 -12 0
-13 12 -70 0
-71 -70 0
-71 -11 0
70 11 71 0
72 -45 0
72 10 0
45 -10 -72 0
71 72 -73 0
-71 -72 -73 0
71 -72 73 0
-71 72 73 0
-69 73 -74 0
69 -73 -74 0
-69 -73 74 0
69 73 74 0
-75 25 0
-75 74 0
-25 -74 75 0
-12 -16 -76 0
12 16 -76 0
-12 16 76 0
12 -16 76 0
77 4 0
77 -48 0
-4 48 -77 0
78 -21 0
78 77 0
21 -77 -78 0
79 78 0
79 40 0
-78 -40 -79 0
-76 -79 -80 0
76 79 -80 0
-76 79 80 0
76 -79 80 0
13 -15 -81 0
-13 15 -81 0
13 15 81 0
-13 -15 81 0
-1 32 -82 0
1 -32 -82 0
-1 -32 82 0
1 32 82 0
83 13 0
83 -4 0
-13 4 -83 0
84 59 0
84 -83 0
-59 83 -84 0
85 82 0
85 84 0
-82 -84 -85 0
86 81 0
86 -85 0
-81 85 -86 0
88 10 0
88 87 0
-10 -87 -88 0
66 -88 -89 0
-66 88 -89 0
66 88 89 0
-66 -88 89 0
-41 18 -90 0
41 -18 -90 0
-41 -18 90 0
41 18 90 0
-91 89 0
-91 -90 0
-89 90 91 0
92 -86 0
92 -91 0
86 91 -92 0
-93 -80 0
-93 -92 0
80 92 93 0
-94 13 0
-94 -4 0
-13 4 94 0
-95 -94 0
-95 -14 0
94 14 95 0
21 95 -96 0
-21 -95 -96 0
21 -95 96 0
-21 95 96 0
97 -11 0
97 -56 0
11 56 -97 0
-96 -97 -98 0
96 97 -98 0
-96 97 98 0
96 -97 98 0
99 -14 0
99 -17 0
14 17 -99 0
-100 -99 0
-100 3 0
99 -3 100 0
-98 100 -101 0
98 -100 -101 0
-98 -100 101 0
98 100 101 0
-102 -93 0
-102 101 0
93 -101 102 0
75 102 -103 0
-75 -102 -103 0
75 -102 103 0
-75 102 103 0
-1 63 -81 83 0
57 -73 -82 0
38 -55 -24 0
39 31 0
-76 -97 -83 44 56 0
56 25 0
77 -73 0
-41 35 -33 0
-62 -75 1 -33 0
-48 -97 0
66 -30 56 89 41 -24 0
28 20 68 0
-41 43 -67 -8 -7 101 0
-49 74 -26 -65 0
72 -71 103 -43 0
-39 -96 -29 56 -51 0
2 58 0
-8 86 -83 62 37 0
-97 -14 1 80 -32 0
86 98 -19 10 0
-26 -80 87 -53 -68 -21 0
70 80 -10 47 12 0
84 88 -97 -77 75 0
4 33 31 95 32 0
-87 -19 0
95 11 -23 -59 0
47 68 -75 -97 100 0
-50 57 16 39 0
47 -87 -83 0
83 -46 23 39 0
-92 34 -97 84 0
-64 -72 -62 -65 0
-94 95 30 17 -103 0
-78 55 91 0
25 49 -7 -78 0
-33 95 0
67 -34 93 0
78 -93 0
-46 44 0
-31 12 0
-49 -2 35 -5 101 -27 0
87 12 17 0
-84 -43 39 -88 0
11 65 0
-81 -100 0
-36 91 0
39 101 54 -27 74 0
-27 -4 -86 45 65 -99 0
91 -52 103 87 -34 0
-74 -12 -13 0
53 -45 -52 -103 66 -9 0
74 16 -56 96 0
-6 -65 30 -27 -40 0
-9 63 88 56 -96 76 0
43 -57 17 -14 100 -75 0
-33 25 -58 -96 0
-4 -37 35 0
-16 -11 -3 0
10 -6 7 57 18 0
11 94 -21 -19 -36 -16 0
103 0
